objective value:                                12705
t_x_5                                               1 	(obj:33)
t_x_6                                               1 	(obj:42)
t_x_7                                               1 	(obj:4)
t_x_16                                              1 	(obj:24)
t_x_19                                              1 	(obj:3)
t_x_20                                              1 	(obj:31)
t_x_21                                              1 	(obj:0)
t_x_22                                              1 	(obj:17)
t_x_23                                              1 	(obj:7)
t_x_25                                              1 	(obj:0)
t_x_26                                              1 	(obj:17)
t_x_27                                              1 	(obj:37)
t_x_28                                              1 	(obj:5)
t_x_29                                              1 	(obj:17)
t_x_33                                              1 	(obj:0)
t_x_36                                              1 	(obj:33)
t_x_43                                              1 	(obj:13)
t_x_45                                              1 	(obj:25)
t_x_49                                              1 	(obj:22)
t_x_50                                              1 	(obj:32)
t_x_52                                              1 	(obj:25)
t_x_54                                              1 	(obj:14)
t_x_55                                              1 	(obj:25)
t_x_60                                              1 	(obj:40)
t_x_64                                              1 	(obj:48)
t_x_67                                              1 	(obj:12)
t_x_70                                              1 	(obj:47)
t_x_72                                              1 	(obj:59)
t_x_74                                              1 	(obj:23)
t_x_75                                              1 	(obj:18)
t_x_77                                              1 	(obj:36)
t_x_83                                              1 	(obj:18)
t_x_84                                              1 	(obj:21)
t_x_86                                              1 	(obj:58)
t_x_88                                              1 	(obj:40)
t_x_89                                              1 	(obj:14)
t_x_91                                              1 	(obj:62)
t_x_92                                              1 	(obj:47)
t_x_93                                              1 	(obj:45)
t_x_95                                              1 	(obj:17)
t_x_101                                             1 	(obj:6)
t_x_104                                             1 	(obj:5)
t_x_105                                             1 	(obj:14)
t_x_106                                             1 	(obj:35)
t_x_114                                             1 	(obj:3)
t_x_119                                             1 	(obj:20)
t_x_120                                             1 	(obj:17)
t_x_122                                             1 	(obj:1)
t_x_123                                             1 	(obj:14)
t_x_124                                             1 	(obj:7)
t_x_125                                             1 	(obj:27)
t_x_131                                             1 	(obj:58)
t_x_132                                             1 	(obj:15)
t_x_133                                             1 	(obj:6)
t_x_135                                             1 	(obj:8)
t_x_136                                             1 	(obj:8)
t_x_140                                             1 	(obj:71)
t_x_143                                             1 	(obj:28)
t_x_144                                             1 	(obj:15)
t_x_145                                             1 	(obj:19)
t_x_146                                             1 	(obj:16)
t_x_150                                             1 	(obj:13)
t_x_151                                             1 	(obj:27)
t_x_153                                             1 	(obj:33)
t_x_157                                             1 	(obj:31)
t_x_163                                             1 	(obj:34)
t_x_165                                             1 	(obj:45)
t_x_167                                             1 	(obj:1)
t_x_170                                             1 	(obj:9)
t_x_172                                             1 	(obj:5)
t_x_174                                             1 	(obj:20)
t_x_177                                             1 	(obj:48)
t_x_179                                             1 	(obj:0)
t_x_192                                             1 	(obj:10)
t_x_193                                             1 	(obj:36)
t_x_197                                             1 	(obj:5)
t_x_200                                             1 	(obj:6)
t_x_201                                             1 	(obj:14)
t_x_207                                             1 	(obj:8)
t_x_209                                             1 	(obj:22)
t_x_210                                             1 	(obj:25)
t_x_211                                             1 	(obj:20)
t_x_218                                             1 	(obj:9)
t_x_220                                             1 	(obj:44)
t_x_223                                             1 	(obj:8)
t_x_235                                             1 	(obj:14)
t_x_238                                             1 	(obj:7)
t_x_240                                             1 	(obj:65)
t_x_245                                             1 	(obj:12)
t_x_253                                             1 	(obj:18)
t_x_259                                             1 	(obj:27)
t_x_263                                             1 	(obj:8)
t_x_269                                             1 	(obj:11)
t_x_270                                             1 	(obj:3)
t_x_272                                             1 	(obj:32)
t_x_276                                             1 	(obj:8)
t_x_279                                             1 	(obj:38)
t_x_283                                             1 	(obj:12)
t_x_287                                             1 	(obj:30)
t_x_291                                             1 	(obj:39)
t_x_292                                             1 	(obj:2)
t_x_298                                             1 	(obj:12)
t_x_308                                             1 	(obj:4)
t_x_309                                             1 	(obj:3)
t_x_310                                             1 	(obj:8)
t_x_313                                             1 	(obj:14)
t_x_315                                             1 	(obj:37)
t_x_316                                             1 	(obj:37)
t_x_318                                             1 	(obj:21)
t_x_319                                             1 	(obj:22)
t_x_320                                             1 	(obj:16)
t_x_323                                             1 	(obj:5)
t_x_324                                             1 	(obj:58)
t_x_327                                             1 	(obj:5)
t_x_329                                             1 	(obj:64)
t_x_331                                             1 	(obj:13)
t_x_333                                             1 	(obj:5)
t_x_342                                             1 	(obj:6)
t_x_343                                             1 	(obj:33)
t_x_347                                             1 	(obj:23)
t_x_350                                             1 	(obj:50)
t_x_354                                             1 	(obj:17)
t_x_355                                             1 	(obj:26)
t_x_356                                             1 	(obj:16)
t_x_358                                             1 	(obj:8)
t_x_361                                             1 	(obj:17)
t_x_364                                             1 	(obj:2)
t_x_370                                             1 	(obj:13)
t_x_371                                             1 	(obj:55)
t_x_374                                             1 	(obj:34)
t_x_375                                             1 	(obj:8)
t_x_377                                             1 	(obj:19)
t_x_378                                             1 	(obj:14)
t_x_379                                             1 	(obj:48)
t_x_381                                             1 	(obj:9)
t_x_384                                             1 	(obj:12)
t_x_386                                             1 	(obj:11)
t_x_387                                             1 	(obj:33)
t_x_390                                             1 	(obj:38)
t_x_391                                             1 	(obj:3)
t_x_393                                             1 	(obj:31)
t_x_394                                             1 	(obj:7)
t_x_396                                             1 	(obj:13)
t_x_398                                             1 	(obj:23)
t_x_399                                             1 	(obj:17)
t_x_403                                             1 	(obj:4)
t_x_409                                             1 	(obj:10)
t_x_411                                             1 	(obj:1)
t_x_412                                             1 	(obj:31)
t_x_413                                             1 	(obj:4)
t_x_414                                             1 	(obj:30)
t_x_418                                             1 	(obj:16)
t_x_423                                             1 	(obj:21)
t_x_428                                             1 	(obj:3)
t_x_435                                             1 	(obj:1)
t_x_437                                             1 	(obj:7)
t_x_438                                             1 	(obj:11)
t_x_439                                             1 	(obj:27)
t_x_440                                             1 	(obj:2)
t_x_446                                             1 	(obj:9)
t_x_449                                             1 	(obj:14)
t_x_450                                             1 	(obj:62)
t_x_452                                             1 	(obj:60)
t_x_454                                             1 	(obj:4)
t_x_457                                             1 	(obj:0)
t_x_463                                             1 	(obj:42)
t_x_465                                             1 	(obj:29)
t_x_469                                             1 	(obj:5)
t_x_472                                             1 	(obj:21)
t_x_475                                             1 	(obj:15)
t_x_483                                             1 	(obj:5)
t_x_489                                             1 	(obj:19)
t_x_496                                             1 	(obj:25)
t_x_499                                             1 	(obj:54)
t_x_503                                             1 	(obj:67)
t_x_505                                             1 	(obj:7)
t_x_509                                             1 	(obj:8)
t_x_510                                             1 	(obj:11)
t_x_512                                             1 	(obj:36)
t_x_513                                             1 	(obj:9)
t_x_517                                             1 	(obj:28)
t_x_523                                             1 	(obj:13)
t_x_527                                             1 	(obj:60)
t_x_529                                             1 	(obj:18)
t_x_530                                             1 	(obj:41)
t_x_536                                             1 	(obj:6)
t_x_539                                             1 	(obj:12)
t_x_540                                             1 	(obj:40)
t_x_544                                             1 	(obj:5)
t_x_545                                             1 	(obj:44)
t_x_547                                             1 	(obj:19)
t_x_551                                             1 	(obj:31)
t_x_555                                             1 	(obj:12)
t_x_561                                             1 	(obj:31)
t_x_562                                             1 	(obj:30)
t_x_563                                             1 	(obj:0)
t_x_567                                             1 	(obj:2)
t_x_569                                             1 	(obj:34)
t_x_575                                             1 	(obj:24)
t_x_576                                             1 	(obj:30)
t_x_579                                             1 	(obj:22)
t_x_582                                             1 	(obj:1)
t_x_583                                             1 	(obj:40)
t_x_586                                             1 	(obj:20)
t_x_587                                             1 	(obj:4)
t_x_588                                             1 	(obj:14)
t_x_589                                             1 	(obj:12)
t_x_590                                             1 	(obj:2)
t_x_593                                             1 	(obj:36)
t_x_600                                             1 	(obj:14)
t_x_603                                             1 	(obj:20)
t_x_604                                             1 	(obj:13)
t_x_608                                             1 	(obj:9)
t_x_610                                             1 	(obj:22)
t_x_612                                             1 	(obj:4)
t_x_613                                             1 	(obj:23)
t_x_618                                             1 	(obj:30)
t_x_621                                             1 	(obj:13)
t_x_625                                             1 	(obj:12)
t_x_627                                             1 	(obj:11)
t_x_630                                             1 	(obj:14)
t_x_632                                             1 	(obj:0)
t_x_633                                             1 	(obj:2)
t_x_642                                             1 	(obj:8)
t_x_657                                             1 	(obj:8)
t_x_661                                             1 	(obj:10)
t_x_664                                             1 	(obj:39)
t_x_668                                             1 	(obj:32)
t_x_670                                             1 	(obj:12)
t_x_674                                             1 	(obj:14)
t_x_678                                             1 	(obj:25)
t_x_681                                             1 	(obj:45)
t_x_684                                             1 	(obj:41)
t_x_686                                             1 	(obj:39)
t_x_687                                             1 	(obj:34)
t_x_689                                             1 	(obj:21)
t_x_690                                             1 	(obj:42)
t_x_691                                             1 	(obj:11)
t_x_694                                             1 	(obj:7)
t_x_697                                             1 	(obj:7)
t_x_699                                             1 	(obj:22)
t_x_708                                             1 	(obj:4)
t_x_716                                             1 	(obj:11)
t_x_717                                             1 	(obj:8)
t_x_720                                             1 	(obj:17)
t_x_721                                             1 	(obj:39)
t_x_725                                             1 	(obj:0)
t_x_727                                             1 	(obj:26)
t_x_728                                             1 	(obj:5)
t_x_737                                             1 	(obj:46)
t_x_740                                             1 	(obj:10)
t_x_742                                             1 	(obj:6)
t_x_750                                             1 	(obj:14)
t_x_755                                             1 	(obj:68)
t_x_762                                             1 	(obj:34)
t_x_763                                             1 	(obj:12)
t_x_764                                             1 	(obj:2)
t_x_772                                             1 	(obj:3)
t_x_774                                             1 	(obj:18)
t_x_785                                             1 	(obj:34)
t_x_787                                             1 	(obj:51)
t_x_789                                             1 	(obj:6)
t_x_791                                             1 	(obj:6)
t_x_792                                             1 	(obj:9)
t_x_793                                             1 	(obj:39)
t_x_797                                             1 	(obj:2)
t_x_800                                             1 	(obj:3)
t_x_802                                             1 	(obj:15)
t_x_803                                             1 	(obj:1)
t_x_804                                             1 	(obj:6)
t_x_806                                             1 	(obj:28)
t_x_809                                             1 	(obj:24)
t_x_811                                             1 	(obj:8)
t_x_817                                             1 	(obj:21)
t_x_819                                             1 	(obj:14)
t_x_824                                             1 	(obj:14)
t_x_826                                             1 	(obj:24)
t_x_830                                             1 	(obj:8)
t_x_839                                             1 	(obj:41)
t_x_840                                             1 	(obj:30)
t_x_847                                             1 	(obj:8)
t_x_848                                             1 	(obj:0)
t_x_849                                             1 	(obj:22)
t_x_853                                             1 	(obj:9)
t_x_854                                             1 	(obj:23)
t_x_856                                             1 	(obj:14)
t_x_857                                             1 	(obj:18)
t_x_862                                             1 	(obj:10)
t_x_865                                             1 	(obj:2)
t_x_866                                             1 	(obj:28)
t_x_871                                             1 	(obj:42)
t_x_872                                             1 	(obj:6)
t_x_878                                             1 	(obj:14)
t_x_879                                             1 	(obj:11)
t_x_882                                             1 	(obj:29)
t_x_889                                             1 	(obj:17)
t_x_893                                             1 	(obj:2)
t_x_898                                             1 	(obj:8)
t_x_901                                             1 	(obj:57)
t_x_902                                             1 	(obj:5)
t_x_908                                             1 	(obj:19)
t_x_910                                             1 	(obj:20)
t_x_917                                             1 	(obj:7)
t_x_920                                             1 	(obj:38)
t_x_921                                             1 	(obj:31)
t_x_922                                             1 	(obj:10)
t_x_924                                             1 	(obj:6)
t_x_929                                             1 	(obj:16)
t_x_932                                             1 	(obj:12)
t_x_933                                             1 	(obj:2)
t_x_939                                             1 	(obj:9)
t_x_942                                             1 	(obj:9)
t_x_944                                             1 	(obj:26)
t_x_947                                             1 	(obj:8)
t_x_948                                             1 	(obj:29)
t_x_951                                             1 	(obj:24)
t_x_955                                             1 	(obj:10)
t_x_956                                             1 	(obj:1)
t_x_960                                             1 	(obj:16)
t_x_961                                             1 	(obj:3)
t_x_962                                             1 	(obj:2)
t_x_967                                             1 	(obj:7)
t_x_973                                             1 	(obj:16)
t_x_977                                             1 	(obj:47)
t_x_978                                             1 	(obj:3)
t_x_985                                             1 	(obj:5)
t_x_986                                             1 	(obj:16)
t_x_991                                             1 	(obj:15)
t_x_992                                             1 	(obj:21)
t_x_995                                             1 	(obj:5)
t_x_996                                             1 	(obj:32)
t_x_998                                             1 	(obj:0)
t_x_1000                                            1 	(obj:8)
t_x_1003                                            1 	(obj:9)
t_x_1006                                            1 	(obj:5)
t_x_1012                                            1 	(obj:10)
t_x_1013                                            1 	(obj:11)
t_x_1016                                            1 	(obj:32)
t_x_1018                                            1 	(obj:6)
t_x_1022                                            1 	(obj:2)
t_x_1026                                            1 	(obj:34)
t_x_1028                                            1 	(obj:40)
t_x_1029                                            1 	(obj:6)
t_x_1031                                            1 	(obj:7)
t_x_1037                                            1 	(obj:13)
t_x_1052                                            1 	(obj:4)
t_x_1053                                            1 	(obj:46)
t_x_1056                                            1 	(obj:13)
t_x_1058                                            1 	(obj:22)
t_x_1061                                            1 	(obj:12)
t_x_1067                                            1 	(obj:10)
t_x_1069                                            1 	(obj:16)
t_x_1072                                            1 	(obj:12)
t_x_1076                                            1 	(obj:25)
t_x_1079                                            1 	(obj:15)
t_x_1084                                            1 	(obj:14)
t_x_1087                                            1 	(obj:5)
t_x_1088                                            1 	(obj:23)
t_x_1090                                            1 	(obj:5)
t_x_1093                                            1 	(obj:28)
t_x_1094                                            1 	(obj:83)
t_x_1096                                            1 	(obj:3)
t_x_1099                                            1 	(obj:45)
t_x_1101                                            1 	(obj:9)
t_x_1103                                            1 	(obj:16)
t_x_1109                                            1 	(obj:23)
t_x_1114                                            1 	(obj:5)
t_x_1118                                            1 	(obj:7)
t_x_1119                                            1 	(obj:66)
t_x_1123                                            1 	(obj:19)
t_x_1125                                            1 	(obj:2)
t_x_1126                                            1 	(obj:17)
t_x_1129                                            1 	(obj:25)
t_x_1131                                            1 	(obj:6)
t_x_1133                                            1 	(obj:16)
t_x_1139                                            1 	(obj:32)
t_x_1140                                            1 	(obj:21)
t_x_1145                                            1 	(obj:28)
t_x_1146                                            1 	(obj:1)
t_x_1149                                            1 	(obj:20)
t_x_1154                                            1 	(obj:64)
t_x_1157                                            1 	(obj:10)
t_x_1162                                            1 	(obj:9)
t_x_1164                                            1 	(obj:15)
t_x_1166                                            1 	(obj:47)
t_x_1170                                            1 	(obj:56)
t_x_1175                                            1 	(obj:4)
t_x_1178                                            1 	(obj:15)
t_x_1180                                            1 	(obj:66)
t_x_1185                                            1 	(obj:42)
t_x_1193                                            1 	(obj:18)
t_x_1197                                            1 	(obj:31)
t_x_1199                                            1 	(obj:66)
t_x_1203                                            1 	(obj:15)
t_x_1204                                            1 	(obj:28)
t_x_1206                                            1 	(obj:17)
t_x_1209                                            1 	(obj:37)
t_x_1210                                            1 	(obj:8)
t_x_1230                                            1 	(obj:36)
t_x_1231                                            1 	(obj:7)
t_x_1235                                            1 	(obj:32)
t_x_1244                                            1 	(obj:25)
t_x_1246                                            1 	(obj:8)
t_x_1251                                            1 	(obj:4)
t_x_1256                                            1 	(obj:56)
t_x_1267                                            1 	(obj:22)
t_x_1268                                            1 	(obj:1)
t_x_1269                                            1 	(obj:52)
t_x_1275                                            1 	(obj:35)
t_x_1276                                            1 	(obj:33)
t_x_1287                                            1 	(obj:30)
t_x_1292                                            1 	(obj:34)
t_x_1293                                            1 	(obj:33)
t_x_1295                                            1 	(obj:34)
t_x_1296                                            1 	(obj:27)
t_x_1298                                            1 	(obj:39)
t_x_1303                                            1 	(obj:38)
t_x_1306                                            1 	(obj:21)
t_x_1308                                            1 	(obj:0)
t_x_1313                                            1 	(obj:23)
t_x_1314                                            1 	(obj:4)
t_x_1315                                            1 	(obj:44)
t_x_1318                                            1 	(obj:11)
t_x_1319                                            1 	(obj:3)
t_x_1320                                            1 	(obj:36)
t_x_1323                                            1 	(obj:38)
t_x_1324                                            1 	(obj:10)
t_x_1336                                            1 	(obj:12)
t_x_1339                                            1 	(obj:5)
t_x_1343                                            1 	(obj:17)
t_x_1345                                            1 	(obj:4)
t_x_1346                                            1 	(obj:5)
t_x_1347                                            1 	(obj:25)
t_x_1348                                            1 	(obj:1)
t_x_1350                                            1 	(obj:37)
t_x_1353                                            1 	(obj:37)
t_x_1354                                            1 	(obj:4)
t_x_1355                                            1 	(obj:13)
t_x_1359                                            1 	(obj:41)
t_x_1361                                            1 	(obj:45)
t_x_1362                                            1 	(obj:15)
t_x_1363                                            1 	(obj:5)
t_x_1366                                            1 	(obj:35)
t_x_1369                                            1 	(obj:15)
t_x_1372                                            1 	(obj:5)
t_x_1376                                            1 	(obj:11)
t_x_1377                                            1 	(obj:11)
t_x_1379                                            1 	(obj:17)
t_x_1390                                            1 	(obj:2)
t_x_1391                                            1 	(obj:14)
t_x_1393                                            1 	(obj:11)
t_x_1395                                            1 	(obj:1)
t_x_1398                                            1 	(obj:9)
t_x_1402                                            1 	(obj:36)
t_x_1405                                            1 	(obj:36)
t_x_1409                                            1 	(obj:35)
t_x_1413                                            1 	(obj:2)
t_x_1421                                            1 	(obj:32)
t_x_1425                                            1 	(obj:18)
t_x_1426                                            1 	(obj:39)
t_x_1427                                            1 	(obj:63)
t_x_1443                                            1 	(obj:14)
t_x_1445                                            1 	(obj:8)
t_x_1446                                            1 	(obj:8)
t_x_1453                                            1 	(obj:9)
t_x_1455                                            1 	(obj:15)
t_x_1460                                            1 	(obj:16)
t_x_1462                                            1 	(obj:10)
t_x_1463                                            1 	(obj:58)
t_x_1465                                            1 	(obj:16)
t_x_1472                                            1 	(obj:4)
t_x_1477                                            1 	(obj:20)
t_x_1480                                            1 	(obj:18)
t_x_1492                                            1 	(obj:12)
t_x_1493                                            1 	(obj:6)
t_x_1501                                            1 	(obj:6)
t_x_1504                                            1 	(obj:39)
t_x_1506                                            1 	(obj:17)
t_x_1507                                            1 	(obj:21)
t_x_1509                                            1 	(obj:12)
t_x_1512                                            1 	(obj:15)
t_x_1514                                            1 	(obj:4)
t_x_1515                                            1 	(obj:66)
t_x_1520                                            1 	(obj:28)
t_x_1526                                            1 	(obj:4)
t_x_1530                                            1 	(obj:13)
t_x_1533                                            1 	(obj:65)
t_x_1542                                            1 	(obj:20)
t_x_1543                                            1 	(obj:14)
t_x_1544                                            1 	(obj:1)
t_x_1550                                            1 	(obj:17)
t_x_1555                                            1 	(obj:5)
t_x_1557                                            1 	(obj:23)
t_x_1559                                            1 	(obj:0)
t_x_1560                                            1 	(obj:24)
t_x_1565                                            1 	(obj:49)
t_x_1566                                            1 	(obj:2)
t_x_1568                                            1 	(obj:1)
t_x_1579                                            1 	(obj:40)
t_x_1580                                            1 	(obj:21)
t_x_1581                                            1 	(obj:23)
t_x_1583                                            1 	(obj:58)
t_x_1585                                            1 	(obj:11)
t_x_1587                                            1 	(obj:27)
t_x_1600                                            1 	(obj:63)
t_x_1605                                            1 	(obj:13)
t_x_1609                                            1 	(obj:5)
t_x_1611                                            1 	(obj:2)
t_x_1614                                            1 	(obj:22)
t_x_1616                                            1 	(obj:33)
t_x_1620                                            1 	(obj:18)
t_x_1624                                            1 	(obj:34)
t_x_1625                                            1 	(obj:11)
t_x_1627                                            1 	(obj:32)
t_x_1633                                            1 	(obj:12)
t_x_1636                                            1 	(obj:13)
t_x_1644                                            1 	(obj:10)
t_x_1648                                            1 	(obj:18)
t_x_1649                                            1 	(obj:27)
t_x_1660                                            1 	(obj:8)
t_x_1662                                            1 	(obj:10)
t_x_1663                                            1 	(obj:25)
t_x_1666                                            1 	(obj:25)
t_x_1670                                            1 	(obj:28)
t_x_1680                                            1 	(obj:47)
t_x_1684                                            1 	(obj:7)
t_x_1686                                            1 	(obj:16)
t_x_1688                                            1 	(obj:21)
t_x_1689                                            1 	(obj:13)
t_x_1693                                            1 	(obj:7)
t_x_1700                                            1 	(obj:10)
t_x_1704                                            1 	(obj:8)
t_x_1706                                            1 	(obj:15)
t_x_1707                                            1 	(obj:37)
t_x_1708                                            1 	(obj:4)
t_x_1710                                            1 	(obj:44)
t_x_1711                                            1 	(obj:11)
t_x_1712                                            1 	(obj:20)
t_x_1715                                            1 	(obj:42)
t_x_1719                                            1 	(obj:26)
t_x_1720                                            1 	(obj:2)
t_x_1724                                            1 	(obj:28)
t_x_1729                                            1 	(obj:26)
t_x_1731                                            1 	(obj:35)
t_x_1735                                            1 	(obj:7)
t_x_1739                                            1 	(obj:34)
t_x_1740                                            1 	(obj:45)
t_x_1741                                            1 	(obj:1)
t_x_1744                                            1 	(obj:23)
t_x_1749                                            1 	(obj:25)
t_x_1750                                            1 	(obj:9)
t_x_1752                                            1 	(obj:39)
t_x_1756                                            1 	(obj:12)
t_x_1760                                            1 	(obj:4)
t_x_1761                                            1 	(obj:7)
t_x_1765                                            1 	(obj:4)
t_x_1767                                            1 	(obj:59)
t_x_1768                                            1 	(obj:19)
t_x_1774                                            1 	(obj:34)
t_x_1781                                            1 	(obj:8)
t_x_1782                                            1 	(obj:33)
t_x_1785                                            1 	(obj:64)
t_x_1786                                            1 	(obj:9)
t_x_1788                                            1 	(obj:7)
t_x_1793                                            1 	(obj:16)
t_x_1795                                            1 	(obj:29)
t_x_1797                                            1 	(obj:13)
t_x_1798                                            1 	(obj:12)
t_x_1803                                            1 	(obj:27)
t_x_1809                                            1 	(obj:22)
t_x_1816                                            1 	(obj:9)
t_x_1817                                            1 	(obj:8)
t_x_1822                                            1 	(obj:5)
t_x_1823                                            1 	(obj:27)
t_x_1824                                            1 	(obj:17)
t_x_1828                                            1 	(obj:43)
t_x_1829                                            1 	(obj:24)
t_x_1834                                            1 	(obj:2)
t_x_1837                                            1 	(obj:24)
t_x_1842                                            1 	(obj:7)
t_x_1844                                            1 	(obj:18)
t_x_1847                                            1 	(obj:46)
t_x_1855                                            1 	(obj:13)
t_x_1857                                            1 	(obj:11)
t_x_1858                                            1 	(obj:16)
t_x_1860                                            1 	(obj:7)
t_x_1866                                            1 	(obj:48)
t_x_1869                                            1 	(obj:19)
t_x_1870                                            1 	(obj:9)
t_x_1872                                            1 	(obj:17)
t_x_1878                                            1 	(obj:1)
t_x_1882                                            1 	(obj:29)
t_x_1886                                            1 	(obj:6)
t_x_1888                                            1 	(obj:7)
t_x_1892                                            1 	(obj:29)
t_x_1898                                            1 	(obj:42)
t_x_1900                                            1 	(obj:2)
t_x_1903                                            1 	(obj:52)
t_x_1906                                            1 	(obj:11)
t_x_1907                                            1 	(obj:26)
t_x_1908                                            1 	(obj:4)
t_x_1910                                            1 	(obj:3)
t_x_1911                                            1 	(obj:19)
t_x_1912                                            1 	(obj:19)
t_x_1916                                            1 	(obj:16)
t_x_1918                                            1 	(obj:54)
t_x_1919                                            1 	(obj:38)
t_x_1924                                            1 	(obj:35)
t_x_1931                                            1 	(obj:9)
t_x_1933                                            1 	(obj:27)
t_x_1934                                            1 	(obj:14)
t_x_1937                                            1 	(obj:8)
t_x_1942                                            1 	(obj:2)
t_x_1944                                            1 	(obj:32)
t_x_1948                                            1 	(obj:3)
t_x_1956                                            1 	(obj:57)
t_x_1957                                            1 	(obj:43)
t_x_1961                                            1 	(obj:10)
t_x_1966                                            1 	(obj:8)
t_x_1967                                            1 	(obj:11)
t_x_1973                                            1 	(obj:18)
t_x_1976                                            1 	(obj:19)
t_x_1978                                            1 	(obj:20)
t_x_1980                                            1 	(obj:37)
t_x_1984                                            1 	(obj:5)
t_x_1987                                            1 	(obj:18)
t_x_1990                                            1 	(obj:17)
